results_rootrelaxation/bin018_070_041.srr.sol
solution status: optimal solution found
objective value:                     1.17534508207814
_var3093_                          0.0174910799858184 	(obj:0)
_var3134_                           0.170185963398176 	(obj:0)
_var3204_                          0.0140598075417236 	(obj:1)
_var3209_                          0.0886305000035334 	(obj:0)
_var3242_                           0.207411978412806 	(obj:0)
_var3248_                           0.194020902554226 	(obj:0)
_var3271_                          0.0895157366215746 	(obj:0)
_var3273_                           0.023541383900473 	(obj:0)
_var3280_                           0.230029692119642 	(obj:0)
_var3288_                            0.42221009969808 	(obj:0)
_var3300_                          0.0444504027002029 	(obj:0)
_var3315_                           0.188642639572373 	(obj:0)
_var3321_                          0.0423036343061683 	(obj:0)
_var3332_                           0.303391823495948 	(obj:0)
_var3336_                           0.077725224331245 	(obj:0)
_var3339_                           0.147410649578206 	(obj:0)
_var3357_                          0.0153518131958871 	(obj:1)
_var3358_                           0.229694512062144 	(obj:0)
_var3366_                           0.132337552581643 	(obj:0)
_var3370_                           0.134624107110193 	(obj:1)
_var3371_                          0.0899634274600049 	(obj:1)
_var3376_                           0.138054360917411 	(obj:0)
_var3394_                           0.254571050102081 	(obj:0)
_var3402_                          0.0350599915024076 	(obj:0)
_var3408_                           0.133217611430569 	(obj:0)
_var3413_                           0.446830178011987 	(obj:0)
_var3414_                          0.0330695802280203 	(obj:0)
_var3418_                           0.188495687049941 	(obj:0)
_var3422_                           0.174694138490597 	(obj:0)
_var3425_                          0.0364230490126665 	(obj:0)
_var3427_                          0.0506186428489777 	(obj:0)
_var3436_                           0.120733921271555 	(obj:0)
_var3442_                          0.0980503693724477 	(obj:0)
_var3445_                          0.0268939502528608 	(obj:1)
_var3455_                           0.149807266701878 	(obj:0)
_var3462_                          0.0831331443145116 	(obj:0)
_var3465_                           0.304033501796144 	(obj:0)
_var3467_                          0.0289992521431308 	(obj:0)
_var3468_                          0.0350116126632182 	(obj:0)
_var3471_                           0.233996495939192 	(obj:0)
_var3476_                         0.00568739370264457 	(obj:0)
_var3479_                           0.510897402922189 	(obj:0)
_var3480_                           0.127273960574876 	(obj:0)
_var3481_                          0.0391857846682434 	(obj:1)
_var3482_                           0.310723824134708 	(obj:0)
_var3483_                          0.0714586938031694 	(obj:1)
_var3485_                          0.0733928869560768 	(obj:1)
_var3487_                           0.319073718816439 	(obj:0)
_var3492_                           0.158598784400783 	(obj:0)
_var3493_                           0.176920067806495 	(obj:0)
_var3497_                          0.0810865145092935 	(obj:0)
_var3500_                           0.194813349901085 	(obj:0)
_var3505_                           0.116294700428194 	(obj:0)
_var3507_                           0.521767085491025 	(obj:0)
_var3509_                          0.0466102529760197 	(obj:0)
_var3514_                          0.0969580463933279 	(obj:0)
_var3515_                           0.221742240474135 	(obj:0)
_var3519_                           0.024798355041522 	(obj:0)
_var3521_                          0.0838008139046653 	(obj:0)
_var3522_                          0.0424921309405083 	(obj:0)
_var3525_                           0.239386984358839 	(obj:0)
_var3531_                          0.0793528406859409 	(obj:0)
_var3533_                          0.0607902611833732 	(obj:0)
_var3535_                           0.342867622000648 	(obj:0)
_var3538_                           0.287767752079692 	(obj:0)
_var3545_                          0.0734823631179491 	(obj:0)
_var3548_                           0.053330003783955 	(obj:0)
_var3550_                           0.291382832657755 	(obj:0)
_var3551_                           0.242754737556772 	(obj:0)
_var3553_                          0.0842451516922808 	(obj:0)
_var3554_                          0.0496812148441107 	(obj:0)
_var3556_                           0.441348328548445 	(obj:0)
_var3557_                         0.00596379436520983 	(obj:0)
_var3562_                          0.0695510891796611 	(obj:0)
_var3563_                           0.178617804912543 	(obj:0)
_var3567_                           0.384490828208979 	(obj:0)
_var3570_                          0.0431573153097878 	(obj:0)
_var3579_                          0.0517674000956505 	(obj:0)
_var3580_                           0.101292963860657 	(obj:0)
_var3581_                           0.102541854585052 	(obj:0)
_var3582_                            0.10303301110744 	(obj:1)
_var3583_                           0.167109632755231 	(obj:0)
_var3586_                          0.0320573888252127 	(obj:0)
_var3588_                           0.247798042153514 	(obj:0)
_var3590_                           0.197241712796971 	(obj:0)
_var3591_                           0.135654476725337 	(obj:0)
_var3592_                           0.169065357633269 	(obj:0)
_var3594_                          0.0689758693287123 	(obj:0)
_var3601_                         0.00504440856690398 	(obj:0)
_var3603_                          0.0725567376680647 	(obj:0)
_var3604_                           0.036848414962654 	(obj:0)
_var3610_                           0.065380809745614 	(obj:0)
_var3614_                           0.096199730121473 	(obj:0)
_var3615_                          0.0242735950812558 	(obj:0)
_var3616_                           0.208249605887147 	(obj:0)
_var3620_                          0.0375156605647313 	(obj:1)
_var3621_                          0.0800182397451696 	(obj:0)
_var3630_                          0.0277833958627681 	(obj:0)
_var3633_                          0.0517493274212701 	(obj:0)
_var3638_                           0.321069199111456 	(obj:1)
_var3640_                          0.0300706714611003 	(obj:0)
_var3648_                          0.0388440380821587 	(obj:0)
_var3649_                          0.0719267104434085 	(obj:1)
_var3650_                           0.210903549297797 	(obj:0)
_var3651_                          0.0301553311928411 	(obj:0)
_var3653_                           0.192384335233628 	(obj:0)
_var3658_                          0.0709133736318627 	(obj:0)
_var3659_                          0.0253066834785556 	(obj:0)
_var3660_                          0.0933116064755962 	(obj:0)
_var3662_                           0.104132977550233 	(obj:1)
_var3664_                           0.114593618078346 	(obj:0)
_var3666_                          0.0957201462653045 	(obj:0)
_var3667_                          0.0340016758966053 	(obj:0)
_var3670_                           0.108351669823458 	(obj:0)
_var3672_                           0.167882165668476 	(obj:0)
_var3674_                          0.0599599160968804 	(obj:0)
_var3676_                          0.0656147971213044 	(obj:0)
_var3678_                          0.0727370523127071 	(obj:1)
_var3680_                          0.0255547130922233 	(obj:0)
_var3681_                           0.047818114254885 	(obj:0)
_var3683_                          0.0293595471284899 	(obj:0)
_var3685_                          0.0658346697502771 	(obj:0)
_var3686_                           0.084076686403775 	(obj:0)
_var3687_                           0.157573545513839 	(obj:0)
_var3688_                          0.0400423781498167 	(obj:0)
_var3689_                         0.00102101652666804 	(obj:0)
_var3693_                           0.056773462923172 	(obj:0)
_var3697_                           0.106006694174632 	(obj:0)
_var3698_                          0.0304322268317466 	(obj:0)
_var3700_                         0.00242836289588597 	(obj:0)
_var3702_                          0.0642315313705637 	(obj:0)
_var3706_                           0.074635843420533 	(obj:0)
_var3707_                          0.0168856510518757 	(obj:0)
_var3709_                           0.103218992649586 	(obj:0)
_var3710_                           0.212982665330954 	(obj:0)
_var3712_                          0.0895195950112886 	(obj:0)
_var3713_                          0.0140598075417236 	(obj:0)
_var3715_                            0.05437393657301 	(obj:0)
_var3716_                          0.0188815362765007 	(obj:0)
_var3717_                          0.0867527488959595 	(obj:0)
_var3718_                          0.0111090463392625 	(obj:0)
_var3719_                          0.0101680903714014 	(obj:0)
_var3720_                           0.010139737158746 	(obj:0)
_var3721_                         0.00964858063635836 	(obj:0)
